25° run output:
{
    "Function": "ClusterA300.tsp",
    "Problem dimension": [
        75,
        200,
        229,
        45,
        44,
        125,
        89,
        63,
        266,
        158,
        0,
        129,
        35,
        29,
        202,
        78,
        284,
        298,
        128,
        84,
        103,
        10,
        176,
        48,
        114,
        261,
        159,
        126,
        28,
        40,
        297,
        246,
        116,
        83,
        14,
        273,
        210,
        289,
        149,
        211,
        163,
        134,
        137,
        173,
        240,
        169,
        32,
        66,
        197,
        236,
        270,
        80,
        119,
        5,
        262,
        195,
        1,
        165,
        201,
        49,
        244,
        241,
        153,
        59,
        38,
        251,
        152,
        74,
        150,
        146,
        186,
        95,
        37,
        248,
        286,
        132,
        154,
        257,
        118,
        148,
        189,
        213,
        110,
        58,
        233,
        64,
        111,
        36,
        18,
        26,
        258,
        187,
        199,
        34,
        12,
        181,
        90,
        54,
        282,
        280,
        31,
        218,
        161,
        41,
        230,
        288,
        94,
        20,
        205,
        221,
        170,
        224,
        52,
        21,
        167,
        144,
        8,
        182,
        285,
        234,
        226,
        100,
        206,
        260,
        143,
        135,
        81,
        179,
        133,
        69,
        208,
        108,
        102,
        97,
        250,
        107,
        299,
        112,
        277,
        22,
        228,
        70,
        77,
        117,
        191,
        121,
        68,
        276,
        185,
        139,
        115,
        166,
        256,
        79,
        220,
        104,
        278,
        254,
        217,
        82,
        296,
        223,
        30,
        106,
        193,
        141,
        6,
        175,
        72,
        65,
        274,
        247,
        127,
        194,
        25,
        235,
        292,
        55,
        131,
        142,
        198,
        269,
        293,
        123,
        180,
        16,
        214,
        207,
        271,
        88,
        71,
        130,
        232,
        23,
        231,
        294,
        239,
        57,
        2,
        46,
        87,
        177,
        124,
        238,
        140,
        219,
        279,
        162,
        253,
        42,
        51,
        245,
        209,
        92,
        160,
        174,
        39,
        4,
        61,
        33,
        281,
        17,
        183,
        287,
        15,
        136,
        212,
        56,
        120,
        27,
        184,
        3,
        263,
        216,
        53,
        19,
        265,
        76,
        243,
        138,
        283,
        196,
        204,
        155,
        168,
        101,
        172,
        7,
        85,
        249,
        203,
        9,
        47,
        178,
        215,
        147,
        11,
        255,
        86,
        105,
        151,
        190,
        24,
        267,
        227,
        275,
        188,
        171,
        272,
        222,
        13,
        295,
        99,
        291,
        225,
        192,
        43,
        62,
        237,
        242,
        290,
        268,
        156,
        113,
        259,
        93,
        252,
        91,
        67,
        73,
        122,
        96,
        164,
        157,
        264,
        109,
        50,
        98,
        60,
        145
    ],
    "Global Optimum": 0,
    "Algorithm": "Genetic algorithm",
    "Parameters": {
        "population": 30,
        "offspring": 30,
        "mutation probability": 0.0033333333333333335,
        "crossover probability": 0.9
    },
    "Fitness": 309380,
    "Solution": [
        75,
        200,
        229,
        45,
        44,
        125,
        89,
        63,
        266,
        158,
        0,
        129,
        35,
        29,
        202,
        78,
        284,
        298,
        128,
        84,
        103,
        10,
        176,
        48,
        114,
        261,
        159,
        126,
        28,
        40,
        297,
        246,
        116,
        83,
        14,
        273,
        210,
        289,
        149,
        211,
        163,
        134,
        137,
        173,
        240,
        169,
        32,
        66,
        197,
        236,
        270,
        80,
        119,
        5,
        262,
        195,
        1,
        165,
        201,
        49,
        244,
        241,
        153,
        59,
        38,
        251,
        152,
        74,
        150,
        146,
        186,
        95,
        37,
        248,
        286,
        132,
        154,
        257,
        118,
        148,
        189,
        213,
        110,
        58,
        233,
        64,
        111,
        36,
        18,
        26,
        258,
        187,
        199,
        34,
        12,
        181,
        90,
        54,
        282,
        280,
        31,
        218,
        161,
        41,
        230,
        288,
        94,
        20,
        205,
        221,
        170,
        224,
        52,
        21,
        167,
        144,
        8,
        182,
        285,
        234,
        226,
        100,
        206,
        260,
        143,
        135,
        81,
        179,
        133,
        69,
        208,
        108,
        102,
        97,
        250,
        107,
        299,
        112,
        277,
        22,
        228,
        70,
        77,
        117,
        191,
        121,
        68,
        276,
        185,
        139,
        115,
        166,
        256,
        79,
        220,
        104,
        278,
        254,
        217,
        82,
        296,
        223,
        30,
        106,
        193,
        141,
        6,
        175,
        72,
        65,
        274,
        247,
        127,
        194,
        25,
        235,
        292,
        55,
        131,
        142,
        198,
        269,
        293,
        123,
        180,
        16,
        214,
        207,
        271,
        88,
        71,
        130,
        232,
        23,
        231,
        294,
        239,
        57,
        2,
        46,
        87,
        177,
        124,
        238,
        140,
        219,
        279,
        162,
        253,
        42,
        51,
        245,
        209,
        92,
        160,
        174,
        39,
        4,
        61,
        33,
        281,
        17,
        183,
        287,
        15,
        136,
        212,
        56,
        120,
        27,
        184,
        3,
        263,
        216,
        53,
        19,
        265,
        76,
        243,
        138,
        283,
        196,
        204,
        155,
        168,
        101,
        172,
        7,
        85,
        249,
        203,
        9,
        47,
        178,
        215,
        147,
        11,
        255,
        86,
        105,
        151,
        190,
        24,
        267,
        227,
        275,
        188,
        171,
        272,
        222,
        13,
        295,
        99,
        291,
        225,
        192,
        43,
        62,
        237,
        242,
        290,
        268,
        156,
        113,
        259,
        93,
        252,
        91,
        67,
        73,
        122,
        96,
        164,
        157,
        264,
        109,
        50,
        98,
        60,
        145
    ],
    "Nb of functions evaluations": 200010,
    "Computational time in seconds": 351.3239588737488,
    "Stopping criterion in evaluations": 200000
}